! Opt B3LYP D4 def2-TZVP TightSCF TightOpt CPCM(water)

%maxcore 3000

%pal
nprocs 30
end

* xyz 0 1
N          1.28140       -0.07040        0.38350
C          2.73350       -0.02580        0.21490
C          3.10740        0.41630       -1.20620
C          4.63080        0.46390       -1.38570
C          5.03820        0.89430       -2.76990
O          4.11820        1.19310       -3.70930
O          6.22360        0.97470       -3.04830
H          0.87120        0.87820        0.22270
H          0.86210       -0.75450       -0.28760
H          3.15620       -1.03590        0.41360
H          3.16580        0.68710        0.95210
H          2.68250        1.42650       -1.39690
H          2.67290       -0.30120       -1.93690
H          5.05410       -0.54570       -1.19220
H          5.06370        1.17930       -0.65300
H          1.05900       -0.37410        1.35900
*
