! B3LYP def2-SVP TightSCF CPCM(water) CHELPG

%maxcore 5000

%pal
nprocs 10
end

* xyz 0 1
{XYZ}
*
