! Opt B3LYP D4 def2-TZVP TightSCF TightOpt CPCM(water)

%maxcore 5000

%pal
nprocs 10
end

%geom
    MaxIter 500
end

* xyz 0 1
N          0.50696        1.14754        0.41184
C          0.37141        2.15170       -0.64445
C          0.20892        1.51808       -2.04004
C          1.36898        0.62121       -2.51060
C          2.67624        1.35436       -2.65400
O          3.20752        1.44550       -3.74877
O          3.29124        1.87807       -1.57676
H          0.53764        1.63153        1.33811
H         -0.31104        0.49613        0.39847
H         -0.53441        2.76498       -0.44164
H          1.23973        2.84215       -0.62215
H          0.06686        2.33402       -2.78198
H         -0.71768        0.90345       -2.03454
H          1.50187       -0.23983       -1.82427
H          1.08296        0.20809       -3.50321
H          1.39477        0.60984        0.29682
O          0.59444       -1.32499        2.81436
H         -0.13573       -0.66456        2.92969
H          0.38925       -1.77203        1.95390
O          3.31994       -1.71750       -0.12229
H          3.69575       -0.82343       -0.32362
H          2.80481       -1.58694        0.71355
O          6.47529        2.54439       -1.57607
H          6.25444        1.57927       -1.54704
H          5.97922        2.88882       -2.36095
*
