! Opt B3LYP D4 def2-TZVP TightSCF TightOpt CPCM(water)

%maxcore 5000

%pal
nprocs 33
end

%geom
    MaxIter 500
end

* xyz 0 1
N           -0.39576063305499       -0.91601243312755        1.38359387226012
C           -1.35225460867563       -0.35190983460011        0.41950879584662
C           -0.66586686889993        0.65708673351544       -0.49420436274179
C           -1.67412578205251        1.32703035851662       -1.43111430208064
C           -2.40515274850115        0.31337220901707       -2.30343808617653
O           -3.64110316031505        0.15993317174501       -2.14218533079983
O           -1.74651299674013       -0.32770059902434       -3.16337661933749
H            0.35920032280185       -1.42907932314384        0.87782296899491
H            0.03647717067336       -0.15574067477668        1.93843738693849
H           -2.16505456529579        0.13808358884313        0.95756321585248
H           -1.78114307237290       -1.16215322079371       -0.17185267118334
H            0.10675373138484        0.16678672143526       -1.08629642309654
H           -0.19328683447475        1.43187849550530        0.11029031243102
H           -2.41814832833348        1.87785524890387       -0.85462588245819
H           -1.15352452010061        2.01677507335756       -2.09844095038080
H           -0.89065398749475       -1.58173352280754        2.01908839236427
O           -4.82799126537970        1.75601353349012       -4.16475304957993
H           -4.58695057735400        1.14354696663495       -3.45190939240267
H           -5.31923813438330        2.47633278346808       -3.75557090748029
O           -4.03681240492473       -2.36541994490582        1.10271805146368
H           -4.24528545012967       -1.41505248201503        1.03127674212265
H           -4.06660911717046       -2.68727588426802        0.18705194174886
O            0.67000092152456        0.67557883317176       -4.20760961005787
H            0.50490431052312        1.05859713949324       -5.07335294400403
H           -0.20508507196325        0.41340151028372       -3.87165398317214
O            0.60282094191598       -1.88455961548203       -2.69098593746236
H            1.20053399823938       -1.41237522155317       -3.28236637341108
H           -0.22708819640985       -1.38353390615478       -2.73646702846846
O           -4.58899839741758        0.30386769419829        0.46872596908607
H           -5.52452041068613        0.52532841195523        0.44959819391891
H           -4.29443651583969        0.27176358564336       -0.46034544506756
O            0.76863040258364        1.19183752175582        2.83389060318696
H            0.40943248390107        1.43366024836317        3.69264437265063
H            1.72743782196446        1.19755580028537        2.90636621654631
O            1.48089589574727       -2.29015748237305       -0.10012943750525
H            1.21806392681380       -2.17950037488501       -1.03304200353464
H            1.56678594631790       -3.23565719593545        0.04969828962311
O           -2.11934724408437       -3.07811111950797       -3.62020716596611
H           -1.21720766543259       -3.39770425390760       -3.49577470956395
H           -2.04977872249653       -2.10733448472130       -3.63248850059408
O           -1.96428428416389       -2.60942811854819        2.85635925085202
H           -2.33902667480671       -2.37596601770118        3.70985107569907
H           -2.71565678268293       -2.65286912717480        2.23062495883139
O           -4.08212094479682       -2.62219920901344       -1.68169183140396
H           -3.50883518368488       -3.05020338658000       -2.34034346624207
H           -4.08791908895017       -1.68338802459445       -1.92885583276448
H           -3.24854458643871        1.58146900109665       -5.34151642814518
O           -2.34960541099394        1.26893522767794       -5.52470099622486
H           -2.20746165712437        0.54781682100087       -4.89617018718321
*
