! Opt B3LYP D4 def2-TZVP TightSCF TightOpt CPCM(water)

%maxcore 5000

%pal
nprocs 33
end

%geom
    MaxIter 500
end

* xyz 0 1
N       -1.4744154606      0.2620169886      0.4557398899                 
C       -2.6532838939      1.0154244643     -0.0753850489                 
C       -3.3971505569      0.3285758407     -1.2130986194                 
C       -2.6577958196      0.2279525101     -2.5511075969                 
C       -1.8403127287     -1.0300102246     -2.8243992456                 
O       -0.8896831074     -0.9271055272     -3.6520449749                 
O       -2.1685372234     -2.1139908985     -2.2663019007                 
H       -1.2065157139      0.6536972919      1.3772830514                 
H       -1.6791835625     -0.7402465331      0.5891949477                 
H       -3.3311841312      1.1549925388      0.7654072188                 
H       -2.2862041760      1.9950835870     -0.3809538759                 
H       -4.2981960727      0.9267357644     -1.3651609945                 
H       -3.7394359832     -0.6547341691     -0.8900899749                 
H       -2.0205296491      1.0982463977     -2.7126047095                 
H       -3.3976680784      0.2459255596     -3.3586502464                 
H       -0.6352130731      0.3447524657     -0.1491652095                 
O       -4.6559847964     -1.9899462450     -4.8689698834                 
H       -4.0377328837     -1.9443367999     -4.1293234383                 
H       -5.2276217133     -1.1952574225     -4.7866817938                 
O       -1.7684871173     -2.6538133589      0.4403905212                 
H       -1.6199690518     -2.5360441103     -0.5190953001                 
H       -2.6886264484     -2.9763542417      0.4581978905                 
O       -2.8388520610      0.4253253094     -6.4111931296                 
H       -2.4562519247      0.1812549098     -5.5423893450                 
H       -2.9891136235      1.3974527099     -6.3733927280                 
O       -0.8676502983      1.4942020132      2.9581046032                 
H        0.0579792679      1.7610555499      3.0358911299                 
H       -1.0327036501      0.9317973225      3.7264767590                 
O       -2.4025192812     -4.3555229486     -3.6515771000                 
H       -1.9676433238     -4.0445400936     -4.4698671110                 
H       -2.8739860928     -3.5486498965     -3.3449636005                 
O        1.5245602317     -1.6332102460     -2.3299962592                 
H        1.4761605741     -2.5417737767     -1.9481804406                 
H        0.7191516874     -1.5352091508     -2.8726763790                 
O        0.9652481127      0.6046943964     -0.9694614341                 
H        1.2726485713     -0.2605432022     -1.3478637073                 
H        1.6605499917      0.9114908191     -0.3745382943                 
O       -1.3859346802     -2.7692907515     -5.7550562435                 
H       -1.6318347151     -2.0323927953     -5.1520613382                 
H       -0.4245901474     -2.7271343566     -5.8293835999                 
O       -4.2894241770     -3.2141336306     -0.7766943518                 
H       -3.7120500482     -2.8298001090     -1.4657612984                 
H       -4.4610467476     -4.1203247708     -1.0609413933                 
O        0.4783061436      1.5500773469     -3.6601311560                 
H        0.7390125974      1.4546103190     -2.7277450475                 
H       -0.0460099196      0.7404710572     -3.8157794429                 
H        0.4925907030     -0.5139073574     -6.4041586200                 
H        0.4254815936     -0.6040349930     -4.8417696714                 
O        1.0103132986     -0.3443450828     -5.5842749154
*
