! Opt B3LYP D4 def2-TZVP TightSCF TightOpt CPCM(water)

%maxcore 5000

%pal
nprocs 6
end

* xyz 0 1
N          1.07890        0.09620        0.90050
C          1.64050       -0.24950       -0.40530
C          1.25090        0.79840       -1.46150
C          1.73740        0.46320       -2.88190
C          3.23540        0.48090       -3.03330
O          3.81300        1.37010       -3.86380
O          3.93390       -0.32540       -2.44110
H          1.44760        1.02270        1.21630
H          0.03490        0.13170        0.84650
H          1.25500       -1.24620       -0.71540
H          2.74400       -0.31220       -0.30900
H          1.63660        1.79820       -1.16420
H          0.14070        0.85290       -1.49580
H          1.34280       -0.52710       -3.19640
H          1.31440        1.23060       -3.56620
H          1.35580       -0.63310        1.59680
*
