! SP B3LYP D4 def2-TZVP TightSCF CPCM(water)

%maxcore 5000

%pal
nprocs 30
end

%geom
    MaxIter 500
end

* xyz 0 1
N           -0.31960325539824       -0.94681026249429        1.36234241886486
C           -0.16658730068310        0.04583997419043        0.28654859265097
C           -1.29234441649034       -0.03521794453331       -0.73643092032189
C           -1.10664153276865       -1.13335016666784       -1.78254194209835
C           -1.31454641227141       -2.56052674866516       -1.34260667141777
O           -0.46977102236302       -3.41772932731210       -1.73442338516016
O           -2.31860677667986       -2.87803913934227       -0.64927053889645
H            0.27845050937342       -0.70858289178253        2.18304182808041
H           -1.30775138325262       -0.95754214761306        1.67196210172798
H           -0.18030756675209        1.03101055181071        0.74994141284260
H            0.79103414994558       -0.10521258608948       -0.20624864853040
H           -1.33808376967471        0.90438111968487       -1.27881503586844
H           -2.25069995763928       -0.16583518401512       -0.23969652223570
H           -0.12728199331148       -1.05689500344584       -2.25023311927781
H           -1.86354084137848       -0.99529193023267       -2.56107464616044
H           -0.08072909017748       -1.90590192649598        1.07417543234750
*
