! SP B3LYP D4 def2-TZVP TightSCF CPCM(water)

%maxcore 5000

%pal
nprocs 30
end

%geom
    MaxIter 500
end

* xyz 0 1
N           -0.61612643870305       -0.06662315454949        1.76271896019514
C            0.38247469224743        0.73603963423235        1.03842878866593
C           -0.25947031117247        1.75155948974665        0.10222818518664
C           -0.61919639758544        1.16030959211621       -1.27023870507455
C            0.65409372879762        0.85261898792638       -2.03003249340670
O            1.03183777556084        1.60150427504879       -2.96994994720882
O            1.33327250733048       -0.13706257432748       -1.64921269816018
H           -0.11928267614262       -0.77588888747730        2.30723378943155
H           -1.14300855786996        0.56042583659145        2.40629358273994
H            0.99199084578628        1.26162449063533        1.76782809739120
H            1.02704972505703        0.07702968761779        0.46234290667871
H            0.42310338699581        2.58676916556923       -0.05549816720530
H           -1.16742193313835        2.15411489327485        0.54631484445242
H           -1.18062017173356        0.23995893220700       -1.14464311302165
H           -1.20929740123193        1.87455864100706       -1.83680580947813
H           -1.28392285623760       -0.54500613994324        1.13662268585854
*
