! SP B3LYP D4 def2-TZVP TightSCF CPCM(water)

%maxcore 5000

%pal
nprocs 25
end

%geom
    MaxIter 500
end

* xyz 0 1
N           -0.60624208623108       -0.07038768740813        2.61779034356506
C           -1.12363857719648       -0.46494171308769        1.30167160544046
C           -0.46115143649218        0.34163711122745        0.19182138532505
C           -0.84160635497570       -0.21723571656020       -1.17316177100070
C           -0.09544420049474        0.40853737944184       -2.33142058957238
O            0.84922426153757        1.20774139071620       -2.11795563449569
O           -0.46682556211610        0.11544106456384       -3.50070496627333
H            0.42253527310690       -0.21407857981904        2.61093202702617
H           -0.81698322881158        0.91962205817293        2.82923517772714
H           -2.20304685893737       -0.32985238309295        1.26284233750033
H           -0.89442969034039       -1.51620650789796        1.14932674449952
H            0.62070683385611        0.28190424694163        0.29435809732139
H           -0.75910670475907        1.38717608207950        0.25577346814278
H           -1.90736417744609       -0.10901768053352       -1.36916371215748
H           -0.62300429187772       -1.28501580858022       -1.21897913767332
H           -0.99073730398029       -0.68430732542489        3.36337486397463
O           -3.45985470422117        0.93435351779080        3.55135133249438
H           -3.71461002897634        0.00567615721167        3.43043008728849
H           -3.30865244519961        1.27756999909041        2.65730831111055
O            3.38484117471065        1.54086947865359       -0.92475280759202
H            2.50773022992637        1.31951267183179       -1.28269647633066
H            3.26205202955874        1.64188532440788        0.03979779198827
O            0.43076913600588       -0.55794601208544       -8.33256281277565
H            0.62593586412931        0.32566542015321       -8.69535366240779
H            1.17554475498325       -0.77826072096810       -7.75060174014193
O           -1.73807109569588       -4.52815447403135        3.69560625218186
H           -1.62084670991683       -3.62489152506666        4.07526673264828
H           -2.23453635655325       -4.37532575500056        2.87894191792370
O            2.36733125082284       -1.68399841016631       -6.46894687372683
H            1.55401365960992       -1.83106031726957       -5.90843981510293
H            2.52871552282795       -2.51434410456892       -6.92438585451898
O           -4.03513686720845       -2.10643999618028       -0.79231236261615
H           -4.10838348762364       -1.16156036406711       -1.00265739883655
H           -3.69301971333794       -2.53328628648425       -1.60409149644331
O           -1.71477927748549       -1.47856284807654       -6.99090675369852
H           -1.02351489398701       -1.00456768554714       -7.50293159601129
H           -2.09954776439023       -2.12045726858926       -7.59318609989343
O            0.18675177817458       -2.07940943782854       -5.06335381435464
H           -0.52724698444976       -1.96090179080827       -5.71857625065735
H            0.07807642271833       -1.34449088116994       -4.43591386487011
O           -1.01733521786487        2.70401576817890        3.03081391173356
H           -1.84865536467566        3.18720209911590        2.87694522396737
H           -0.32257722785069        3.15806868774483        2.52588554336221
O           -1.05782401911662        1.67380229559196       -5.63483731822377
H           -0.74596304818914        1.11120437365200       -4.89793188186753
H           -1.67394751280561        2.30046463018427       -5.22137313760128
O            3.50909700609436       -3.90595774156387        2.15390355296686
H            3.27819983327660       -3.43314119426503        1.32959299523596
H            2.65682258200416       -4.23841919157867        2.48198329161473
O           -2.73200301744733       -3.32924244360431        1.27293828460133
H           -1.81711513940382       -3.34795749114326        0.95280662040176
H           -3.25151476692748       -2.97529208582291        0.52612236517772
O           -4.69875570770153        1.03453230850505       -4.28339616090669
H           -4.01363198020510        0.32920713179163       -4.39032983316797
H           -5.37180183855103        0.86332542976689       -4.94684072791799
O            1.35017551556422       -2.64057583602005        4.86813505214742
H            0.93859043403694       -1.75083612316463        4.79735964097648
H            1.07934383637303       -3.13991539890414        4.07327888030117
O            4.60966725306771       -0.90261518152695       -1.21966813113810
H            4.28307710142023        0.02046052660554       -1.13978888248889
H            4.50778205051742       -1.13577832097045       -2.15049823759130
O           -3.46774450434473        3.95969356040552        2.79698533709408
H           -3.92745423965757        3.61611005151621        3.56899463352907
H           -3.71301610621392        3.36705695860603        2.06009110192839
O            4.55000885830547        1.29930510366292       -4.60866596845090
H            5.43835584082182        1.66179158281730       -4.63947133949814
H            4.24882526678006        1.18949876056604       -5.54760081537942
O            0.76826333690427       -4.28371292275104        2.74785425024689
H            0.49746363324711       -3.96974947833974        1.86658987137902
H           -0.06509940434962       -4.59963951154514        3.15621076744038
O           -1.29033936984995       -1.17367140820090        7.14108782636291
H           -1.62009168901153       -0.33319540014147        6.76805533588605
H           -0.39473739683115       -0.94977787909465        7.45362061013939
O            3.75076562801543       -1.25074932974922       -4.00817732845207
H            3.39459831738549       -1.50302038748551       -4.87670552753724
H            4.04049551993828       -0.32476161279002       -4.12422927573286
O           -1.53166940091679       -1.92939175014456        4.47687266856073
H           -2.46956055800217       -1.79917771491112        4.26195833015001
H           -1.42796307864592       -1.73373177268923        5.42475930087755
O            0.97139425398925        2.02124280129103       -9.19167313376954
H            0.29353475720777        2.58929974731433       -9.56809338199298
H            1.17993225805113        2.38674664887972       -8.31537040000198
O           -3.56518927893213        1.99889525099445        0.89976293882254
H           -2.99545891806586        2.35659860277625        0.20250524663644
H           -4.24474666396918        1.50035773632740        0.43215673574298
O            1.56479824443993       -1.74399692268416       -2.37408545632153
H            2.32791262929035       -1.61666123672532       -2.96424197425055
H            1.94904190124344       -1.93568031648489       -1.49126378628737
O            3.42874992014195        0.87156746469143       -6.97084884726600
H            3.08828272775300       -0.03062414008490       -6.85377177383735
H            2.65016875465481        1.46079511923782       -6.88399349423826
O           -3.94566243350755       -1.79334740904009        3.17871411808798
H           -3.47384539439077       -2.29148645391535        2.47644267145068
H           -4.77658544029908       -2.24863405884950        3.31847608344742
O           -2.77661586127980       -0.80178818392074       -4.49766360217037
H           -1.97319469358985       -0.45527751913582       -4.04696045984096
H           -2.49917488783907       -0.94801581841163       -5.41765917481475
O            2.26331775548481        2.66363961611144       -3.94273318133117
H            3.09679703865211        2.17107360709981       -4.07296340333741
H            1.70774681115051        2.07878323976031       -3.37977614763015
O            1.03677426923133        3.97587621265697        1.72353398649282
H            1.19972168406657        4.92027023908938        1.77162846330634
H            0.76982712867680        3.79577429962699        0.78911654720989
O            2.09930009721335        3.68069892937178        4.65274085167046
H            2.60099216979125        2.85058467775784        4.71150213691031
H            1.77432465045798        3.71146632807653        3.74301515847420
O            0.85290544703521        0.01729769706029        5.09073257709711
H            1.12754172101561       -0.11434149865481        6.00925492352898
H           -0.04238840351646        0.41650871715291        5.15698703040328
O            0.00324297760222       -3.36291555137929        0.22820987905821
H            0.87676909915687       -2.94525162099886        0.16017220522890
H           -0.16070076003603       -3.74538213424340       -0.64595594238135
O            0.17098242460356       -3.69576605612512        7.03979910014110
H           -0.55908481270106       -3.07576038690067        7.17566589448349
H            0.61330266343669       -3.37974579509336        6.21142475405745
O            2.02323439519294       -0.65553148779421        2.07044450602214
H            2.35677712553780        0.23928619905881        1.86971499056732
H            2.61498538395027       -1.01515166648259        2.76701640247685
O            2.65219956176351       -2.24367101238309        0.09078714825152
H            2.37564175277212       -1.61320461017357        0.81896996003575
H            3.47052762596020       -1.85329107714689       -0.27565521237206
O            1.31815820182293       -0.39849496872008        7.82345238929095
H            1.67552002270259       -1.24687473336731        8.15564545598919
H            1.53634222207258        0.27266261663961        8.47308737620705
O           -4.21058716542034        0.66917953410616       -1.54380588595219
H           -4.64807232239610        0.74614676565964       -2.40341204183934
H           -3.46730573095100        1.29093821541325       -1.59128241094452
O           -2.88501015804295       -3.13738021490954       -3.03870038256440
H           -2.87400656751972       -2.34713723393938       -3.61338072439828
H           -1.94906666644737       -3.34903557071587       -2.86188616972762
O           -0.54236804186732        3.55142476059117        5.55498821920870
H           -0.74274433039987        3.32175491658295        4.61602279712846
H            0.42071608177668        3.67780175690291        5.54791179263608
O            3.68341283735116       -1.76581824076386        3.88934183326953
H            2.92394977893664       -2.10287774783467        4.42331485303266
H            3.90965424330394       -2.52219052729422        3.31841145342828
O            0.45047962543900        3.54387683205883       -0.84249124441045
H            1.24004214462761        4.00757656231038       -1.19581247709411
H            0.57423257317185        2.62864877790251       -1.16956030865621
O           -1.61636544219815        1.01349477808655        5.56924659485857
H           -1.36177541076975        1.93248962238516        5.75420093810465
H           -2.27833768538457        1.04676657181400        4.84849167801258
O            2.07945151952054       -2.85881540219750        8.69923370475051
H            2.88708077254189       -3.31977919349024        8.45854271575970
H            1.35810539627763       -3.28267111696132        8.16569746579229
O            3.15185109575647        1.12123382997536        4.30023211898556
H            2.25655012098910        0.74985443356882        4.51475077188705
H            3.74232731021386        0.36304376433815        4.36644239624493
O            2.90538221540293        4.18788854636782       -1.77534790256220
H            3.31411167521095        3.39878093120492       -1.36950366091119
H            2.71706698780295        3.89380639419767       -2.68749111801634
O            1.32313363664168        2.57938439990890       -6.49098371374194
H            0.43063047659312        2.22320984576168       -6.27758936601001
H            1.69365584279916        2.80302227537594       -5.61166723397496
O           -0.21040575864521       -3.76991132227877       -2.53649468486580
H            0.39114144803255       -2.99391536644149       -2.61787641756265
H            0.11376025273825       -4.41798175048796       -3.16553801615508
O           -2.23891965982613        2.82616257121249       -1.50016333271283
H           -1.38505643236372        3.24289984799093       -1.30579862422045
H           -2.44486632121899        3.05414859936955       -2.42185845572604
O            2.85661348542110        1.89473674940933        1.73370452786364
H            3.14136493096845        1.76805730878523        2.66409821114908
H            2.21286212464472        2.62474526390670        1.75116405780754
O           -2.99026768519935        3.15321750926823       -4.17949489004768
H           -3.43925920935644        3.94633715563314       -4.48487163131767
H           -3.65036293012215        2.42675736025620       -4.21893541093250
*
