! Opt B3LYP D4 def2-TZVP TightSCF TightOpt CPCM(water)

%maxcore 5000

%pal
nprocs 33
end

%geom
    MaxIter 500
end

* xyz 0 1
H           -1.47945382793500       -0.60554735317034       -0.75889737097435
C           -1.36220480569953       -0.07649505762776       -1.70516970703424
H           -0.32637683724909       -1.48473150696147       -2.81274315306237
H           -2.21891969717787       -0.30557782578028       -2.33855981916411
N           -0.14372595985586       -0.55538176577770       -2.38509270739348
H           -2.33733101783100        1.75834534653008       -1.17554376213804
C           -1.33803085516067        1.42803247790635       -1.47301386507628
O           -0.21091216190813        1.22621638381166        0.65063942295809
C           -0.42778948055103        1.94080189170177       -0.36136129286409
H            0.65965029242019       -0.66447724770480       -1.73881475358628
O            0.03291137867998        3.10228733140278       -0.49236606381499
H            0.14248642465836        0.09950412524373       -3.14452618715562
H           -1.08084339286511        1.96181505846063       -2.38741095047379
O            0.65644964750460        4.73538517071084        1.68885993305525
H           -0.17639742681305        5.22122782186990        1.72362940326743
H            0.58247527824252        4.17687722598748        0.89069916273190
O            0.98089558903759        2.28916447374257        3.02835525943616
H            1.00056825960684        3.23939267398945        2.82440852460078
H            0.44583217325388        1.90399287335286        2.31390414884274
O            0.01576214622233       -1.63525096824761        0.85651371342434
H            0.83429783201423       -1.83498716754617        0.37899697584915
H           -0.00217804619989       -0.66818978856861        0.91393690559784
O           -2.12366124870484        4.82894829320876        0.37161453150545
H           -1.41235322981879        4.35384425146192       -0.08196676639670
H           -2.85803340591707        4.19357443366001        0.41635192026128
O           -3.96024131934539        2.65326949829693        0.34778472071305
H           -3.63424404931245        1.87383635530914        0.83580820304438
H           -4.91878142114834        2.64096370323859        0.43202245178819
O           -2.78108265516952        0.42814036710673        1.49838422761048
H           -1.85049726260693        0.62470388855138        1.30087568088544
H           -2.79167448102330       -0.01673458233440        2.35101524162231
H            1.67827342696243        1.15077006682733        0.83775806548335
O            2.61007432968470        0.87965354028258        0.82901368406927
H            2.90199819010048        0.96288221315135        1.74234892274921
O            0.86055732471601        3.63509598408504       -3.06886419716232
H            0.58572727317297        3.51904048946041       -2.13942566829050
H            1.55659656846685        4.29782793623033       -3.06255579494650
H            0.27729871072587        1.33763420309788       -5.21003458963240
O            0.70721114817709        1.19399076453650       -4.36242748413072
H            0.84310050719957        2.07051821438710       -3.96132839053409
H            2.95803613721064       -1.44424175768065       -1.42880863132165
H            2.47435562959133       -0.45260404100968       -0.33322632208581
O            2.18625366200082       -1.17129393905379       -0.92486553076228
H           -0.13887589354527       -3.25620769978293       -4.34415134397893
O           -0.70877600961248       -2.98467331990375       -3.61840076864404
H           -0.90652275957797       -3.76488636478554       -3.09290732237930
*
