! Opt B3LYP D4 def2-TZVP TightSCF TightOpt CPCM(water)

%maxcore 5000

%pal
nprocs 18
end

* xyz 0 1
N          1.28290       -0.09880        0.37130
C          2.73550       -0.03380        0.21400
C          3.11410        0.43510       -1.19720
C          4.63640        0.50550       -1.36360
C          5.00730        0.96970       -2.74260
O          5.71860        2.10170       -2.90470
O          4.67640        0.31970       -3.72170
H          0.86220        0.84710        0.22230
H          0.87690       -0.77750       -0.31330
H          3.16940       -1.04170        0.39980
H          3.15370        0.67260        0.96550
H          2.67860        1.44280       -1.37730
H          2.69200       -0.27530       -1.94190
H          5.08340       -0.49740       -1.19010
H          5.05480        1.21350       -0.61510
H          1.05740       -0.42040        1.34030
*
