! Opt B3LYP D4 def2-TZVP TightSCF TightOpt CPCM(water)

%maxcore 5000

%pal
nprocs 10
end

%geom
    MaxIter 500
end

* xyz 0 1
N          0.56054        1.09630        0.64658
C          1.12301        2.26025       -0.03439
C          0.59005        2.46964       -1.46910
C          0.97735        1.37805       -2.48626
C          0.17678        0.10300       -2.41372
O          0.44224       -0.81018       -3.17841
O         -0.86488       -0.03088       -1.57141
H          0.91543        1.07800        1.62974
H         -0.48268        1.16068        0.67203
H          0.86833        3.16954        0.55387
H          2.23209        2.17538       -0.05708
H          1.06843        3.41016       -1.82025
H         -0.50836        2.63859       -1.47484
H          2.06196        1.16020       -2.38471
H          0.80691        1.78368       -3.50693
H          0.87393        0.21555        0.18325
O         -0.98173       -2.11288        0.90823
H         -0.66995       -1.53480        1.64923
H         -0.18153       -2.23980        0.33885
O         -2.29115       -2.90542       -2.14088
H         -1.31133       -3.04658       -2.11624
H         -2.42437       -2.21004       -2.83317
O          4.10138        3.23182       -2.85484
H          3.82732        3.27243       -1.90422
H          3.28833        3.48769       -3.35887
O          0.67746        3.17075        3.71724
H          1.52224        3.21671        3.20260
H         -0.03036        3.35665        3.05015
O          3.46687       -0.90016       -0.13422
H          3.58076       -0.10776       -0.71679
H          3.34764       -0.52451        0.77422
O         -1.62042        3.45868       -4.11791
H         -0.75459        3.93259       -4.03852
H         -2.15017        3.78025       -3.34566
O         -3.86048        1.10237       -1.69991
H         -3.13470        1.73285       -1.93688
H         -3.70527        0.31552       -2.28079
*
