! Opt B3LYP D4 def2-TZVP TightSCF TightOpt CPCM(water)

%maxcore 5000

%pal
nprocs 15
end

* xyz 0 1
O          2.16767       -1.66737       -4.68541
H          2.21546       -0.88966       -4.07440
H          1.20942       -1.91650       -4.69663
O         -2.27869       -3.22538       -3.81775
H         -3.14695       -2.75536       -3.89313
H         -1.65615       -2.68651       -4.36797
O         -5.20649       -1.07043       -1.73658
H         -4.49971       -1.76077       -1.67032
H         -4.95048       -0.52736       -2.52395
O         -0.15193       -2.61573        0.12603
H         -0.05852       -1.70463        0.50239
H          0.71656       -3.05216        0.31465
O         -0.54987        4.55591       -3.41852
H         -1.11763        4.94510       -2.70677
H          0.04759        3.92718       -2.94143
O          2.33822        2.08285       -3.61517
H          1.86938        2.08797       -2.74320
H          1.61269        2.02331       -4.28643
O          2.34327        4.08405       -0.48913
H          1.48282        4.52402       -0.70505
H          2.17957        3.62986        0.37549
O         -4.35000        0.22606        1.37526
H         -4.06118       -0.27304        2.18019
H         -3.74261       -0.08722        0.65906
O          0.90921       -4.63602       -2.79255
H          0.39141       -3.79684       -2.70539
H          1.23336       -4.82304       -1.87579
H          2.95081        0.39504       -1.08687
O          2.80865        0.63108       -0.13589
H          2.20739       -0.07631        0.20839
H         -2.43617        1.08265       -5.23419
O         -3.33359        1.50000       -5.20085
H         -3.15797        2.44796       -4.97462
H         -0.65622        2.59350        2.76742
O         -1.42011        2.38677        3.36279
H         -1.76514        1.51944        3.03205
H         -5.05136        3.18395        0.02131
O         -5.07856        3.78462        0.80816
H         -4.35693        4.44247        0.64336
H          3.28568       -2.61669       -0.58460
O          3.19268       -2.52446       -1.56603
H          2.29265       -2.13203       -1.69353
H         -2.08510       -0.67374       -1.23467
C         -1.76477       -0.06578       -2.10909
H         -0.19802       -1.29661       -2.60662
H         -2.34440       -0.40921       -2.99377
N         -0.34297       -0.28771       -2.37638
H         -3.21400        1.49001       -1.78360
C         -2.10764        1.41544       -1.87505
O         -0.14898        2.09635       -0.51427
C         -1.48606        1.99088       -0.63070
H          0.23567       -0.06671       -1.53748
O         -2.19761        2.40420        0.26911
H         -0.03551        0.29021       -3.19141
H         -1.79765        2.01905       -2.75350
*
