! Opt B3LYP D4 def2-TZVP TightSCF TightOpt CPCM(water)

%maxcore 5000

%pal
nprocs 15
end

%geom
	MaxIter 1000
end

* xyz 0 1
  O           2.73005640130158     -1.03999702881985     -3.48945052034487
  H           2.39356500372782     -0.13695684151983     -3.31368198058518
  H           1.94923857248868     -1.62026976261762     -3.60044482966887
  O          -1.81861484954360     -2.96171986262542     -4.14627999269655
  H          -2.63038793531090     -2.83313215616653     -3.64114740393117
  H          -1.93805348236596     -2.47323532307901     -4.96945522431909
  O          -5.26856878255026     -1.15745862153584     -0.82387263390012
  H          -4.49613766582778     -1.72855453115257     -0.92130190592596
  H          -5.35753295740352     -0.72633451994718     -1.68282656759045
  O          -0.57739700046574     -2.31428362920309     -0.62306647542873
  H          -0.86401739769533     -2.13983203590136      0.28377215388044
  H           0.24871173032093     -2.80841394223360     -0.54312184606420
  O           0.37323026654001      4.91267107402556     -2.60121638722673
  H          -0.44164918132267      5.42685806075872     -2.57161085051790
  H           0.17341362583382      4.11352882254079     -2.08222322416334
  O           2.14597622985128      1.59156119983659     -2.93494557204407
  H           1.88384308652228      1.98201498228039     -2.07692804509969
  H           1.79400215482778      2.18052482460568     -3.61220382243372
  O           1.92153116951880      2.36064219525795     -0.16683081782809
  H           0.97258472893259      2.51874015051561     -0.31416058040794
  H           1.96719384607459      1.44203177756639      0.17624076551108
  O          -2.18268102194126      0.75971799839609      2.14451191289849
  H          -1.48199512590513      0.10159861296617      2.24352160167729
  H          -2.53221885833416      0.61219930555478      1.25607702323139
  O           0.90920581633516     -3.08840150176273     -3.68566532157575
  H          -0.06943064124078     -3.08034114454425     -3.72304702829958
  H           1.13461268463456     -3.60720937349221     -2.90476925042528
  H           2.45022636544440     -0.84095269962092      0.11869345478807
  O           1.99834741344644     -0.25326244505970      0.77025031757059
  H           1.10039014041378     -0.59247816492125      0.85560657784543
  H          -2.35732474302383      0.02631000121396     -5.42969814449131
  O          -3.28139248763590      0.23856194094339     -5.61141571163391
  H          -3.30772986289828      1.20342576907660     -5.62083683370807
  H          -1.53658570105116      3.60809765266505      0.97005755789582
  O          -1.23007338135928      3.47485694524135      1.88887746524350
  H          -1.48201555404818      2.55156983192766      2.06809987910356
  H          -3.95525098609412      2.87673917170938      0.04703960651937
  O          -4.78117092088857      2.55521713268763      0.47434223374599
  H          -4.54116687278412      2.41284691987035      1.39649555919023
  H           3.17887396997762     -2.77292359122077     -0.87502176367764
  O           3.38658696677323     -1.83574779306365     -0.95722135420471
  H           3.20142839981628     -1.59447927075008     -1.89695921589275
  H          -2.42641873668393     -0.14607475079720     -1.11552043090216
  C          -2.22579770912539      0.17922987636357     -2.13438604148882
  H          -0.50668131964341     -0.95788987858391     -1.86264269491294
  H          -2.81368943137762     -0.43402269137133     -2.81067340190962
  N          -0.77750969434620     -0.10948629366050     -2.38968135842335
  H          -3.63675016571634      1.76997557360701     -2.14311794255987
  C          -2.56895391301343      1.65138254933550     -2.31783495482005
  O          -0.51895605162609      2.45407320091793     -1.42205928474526
  C          -1.78102900347207      2.57468066429264     -1.39091226722286
  H          -0.22917657599829      0.70525769014387     -2.06700448650392
  O          -2.40139766635258      3.39424236389032     -0.67438268983527
  H          -0.58741487083995     -0.25412953279391     -3.37948530849776
  H          -2.36665802489565      1.95169109825327     -3.34951194319336
*
