! Opt B3LYP D4 def2-TZVP TightSCF TightOpt CPCM(water)

%maxcore 5000

%pal
nprocs 10
end

* xyz 0 1
N          1.09785        0.90387        0.64414
C          0.78991        1.91461       -0.36824
C          0.63192        1.30584       -1.77422
C          1.86825        0.57889       -2.33319
C          3.06056        1.47779       -2.51974
O          3.51269        1.66595       -3.63762
O          3.66664        2.04382       -1.45998
H          1.11789        1.36150        1.58374
H          0.36392        0.15907        0.64716
H         -0.17043        2.40753       -0.10195
H          1.56918        2.70395       -0.36322
H          0.34869        2.11639       -2.47930
H         -0.20884        0.57908       -1.74403
H          2.14878       -0.27537       -1.68458
H          1.58224        0.15904       -3.32171
H          2.03575        0.48020        0.46697
O         -2.56582        0.71601        0.92343
H         -2.10983        1.46340        1.38602
H         -2.32653        0.83121       -0.03047
O          2.59008       -1.08161        2.97770
H          3.35283       -0.68315        2.48804
H          2.16328       -0.31516        3.43674
O          5.71210        0.24130        0.61456
H          6.04128        0.94513        0.00072
H          4.78929        0.05665        0.30716
O          6.28269        3.39661       -2.87331
H          6.34061        2.49199       -3.27199
H          5.53523        3.83273       -3.35475
O          2.25132        3.69875       -5.84282
H          1.66848        3.32461       -6.55044
H          3.14259        3.30632       -6.02201
O         -0.82675        0.09910        3.85073
H         -0.49369        1.00583        3.63304
H         -0.61573       -0.44221        3.04892
O          2.52981       -2.68055       -0.09950
H          3.25216       -2.01735        0.03671
H          1.70597       -2.21275        0.18840
O          2.52061        0.02298       -6.22173
H          2.35849       -0.76761       -5.64798
H          1.82721        0.67456       -5.94787
O         -1.17359        0.37403       -4.65338
H         -0.50396       -0.32475       -4.86251
H         -0.68145        1.22736       -4.75408
O          3.97657        3.04883        1.80359
H          4.65191        3.15092        1.08667
H          3.66855        2.11163        1.72227
O          3.14823        5.28041       -1.05799
H          4.02500        4.87358       -1.27228
H          2.94311        4.96054       -0.14389
O          0.51037        4.93780       -3.04876
H          1.35697        4.44204       -3.18265
H          0.25570        4.74434       -2.11169
O          5.37966       -0.99145       -2.76373
H          6.10557       -0.89799       -2.09695
H          4.59318       -1.27883       -2.23535
O          0.11743        5.34270        0.79207
H          0.60707        4.65379        1.30803
H         -0.72783        4.90035        0.52678
*
