! SP B3LYP D4 def2-TZVP TightSCF CPCM(water)

%maxcore 5000

%pal
nprocs 10
end

%geom
    MaxIter 500
end

* xyz 0 1
{XYZ}
*
